95
68
89
150
55
66
69
97
77
84
131
98
72
51
110
74
57
53
81
0
61
76
70
59
67
107
123
86
99
61
0
123
73
66
43
148
53
31
67
56
79
91
71
49
72
132
110
93
71
95
69
94
83
39
106
54
176
79
150
70
71
101
64
55
137
115
96
57
87
101
50
0
51
75
72
59
0
72
67
108
82
126
126
67
32
67
76
57
85
70
63
78
61
105
65
66
102
74
64
94
